N = 510;
M = 1254;
Edge_Start = [1, 1, 2, 3, 4, 5, 5, 7, 7, 8, 9, 10, 11, 11, 12, 13, 13, 14, 15, 15, 16, 17, 17, 18, 19, 19, 20, 21, 21, 22, 23, 23, 24, 25, 25, 26, 27, 27, 28, 29, 29, 30, 31, 32, 33, 33, 35, 35, 36, 37, 39, 40, 41, 41, 42, 43, 43, 44, 45, 45, 46, 47, 47, 48, 49, 49, 50, 51, 51, 53, 54, 55, 55, 56, 57, 58, 59, 59, 60, 61, 61, 62, 63, 64, 64, 65, 66, 66, 67, 68, 68, 69, 70, 70, 71, 72, 74, 74, 76, 77, 78, 78, 79, 80, 80, 81, 82, 83, 84, 85, 86, 86, 87, 88, 88, 89, 90, 90, 92, 93, 94, 96, 97, 97, 98, 99, 99, 100, 101, 101, 102, 103, 103, 104, 105, 105, 106, 107, 107, 108, 109, 111, 111, 112, 113, 113, 115, 115, 117, 117, 118, 119, 119, 120, 121, 121, 122, 123, 123, 124, 125, 125, 126, 127, 128, 128, 130, 130, 131, 132, 132, 133, 134, 134, 135, 136, 137, 138, 138, 139, 140, 140, 141, 142, 144, 144, 145, 146, 147, 148, 149, 150, 151, 152, 152, 153, 154, 155, 156, 156, 158, 158, 160, 161, 161, 163, 163, 165, 165, 166, 168, 169, 170, 171, 171, 173, 173, 174, 175, 175, 176, 177, 178, 179, 180, 181, 181, 182, 183, 185, 185, 186, 187, 187, 188, 189, 189, 191, 192, 192, 193, 194, 194, 195, 196, 196, 197, 198, 198, 200, 200, 201, 202, 203, 204, 204, 205, 206, 206, 207, 208, 208, 209, 210, 210, 212, 212, 213, 214, 214, 215, 216, 216, 217, 218, 219, 220, 221, 222, 224, 225, 225, 226, 227, 227, 228, 229, 229, 230, 231, 232, 233, 233, 234, 235, 235, 237, 237, 238, 239, 239, 240, 241, 241, 242, 243, 243, 244, 245, 245, 246, 247, 247, 248, 249, 249, 251, 251, 253, 253, 254, 255, 256, 256, 257, 258, 258, 259, 260, 260, 261, 262, 263, 264, 264, 265, 266, 268, 268, 269, 270, 270, 271, 272, 273, 274, 274, 276, 276, 277, 278, 279, 280, 281, 282, 282, 283, 284, 284, 285, 286, 286, 288, 289, 290, 291, 292, 293, 294, 295, 295, 296, 297, 297, 298, 299, 300, 301, 302, 303, 303, 304, 305, 305, 306, 307, 308, 309, 309, 310, 311, 311, 312, 313, 313, 314, 315, 315, 316, 317, 317, 318, 319, 320, 320, 321, 322, 322, 323, 324, 324, 325, 326, 326, 327, 328, 328, 330, 331, 332, 332, 333, 334, 334, 335, 336, 338, 338, 339, 340, 340, 341, 342, 342, 343, 344, 344, 345, 346, 346, 347, 348, 348, 350, 350, 352, 353, 353, 355, 357, 357, 358, 359, 359, 360, 361, 361, 362, 363, 363, 364, 365, 366, 367, 367, 369, 369, 370, 371, 371, 372, 373, 374, 375, 376, 377, 379, 380, 381, 382, 383, 384, 384, 385, 386, 387, 388, 388, 390, 390, 391, 392, 394, 394, 395, 396, 397, 398, 398, 399, 400, 400, 401, 402, 402, 404, 405, 406, 406, 407, 408, 409, 410, 410, 411, 412, 412, 414, 414, 416, 417, 417, 418, 419, 419, 420, 421, 421, 423, 423, 424, 425, 425, 426, 427, 427, 428, 429, 429, 430, 431, 431, 433, 433, 435, 436, 437, 437, 438, 439, 439, 440, 441, 441, 442, 443, 443, 444, 445, 445, 446, 447, 448, 448, 449, 450, 450, 452, 452, 453, 454, 455, 456, 458, 458, 460, 461, 462, 463, 464, 465, 466, 467, 468, 468, 469, 470, 471, 472, 472, 473, 474, 474, 475, 476, 476, 477, 478, 478, 480, 481, 482, 483, 484, 485, 486, 487, 489, 491, 492, 493, 494, 495, 496, 497, 498, 499, 500, 501, 502, 503, 504, 505, 506, 507, 508, 509, 2, 32, 3, 34, 5, 6, 36, 8, 38, 9, 40, 11, 12, 42, 13, 14, 44, 15, 16, 46, 17, 18, 48, 19, 20, 50, 21, 22, 52, 23, 24, 54, 25, 26, 56, 27, 28, 58, 29, 30, 60, 31, 62, 33, 34, 65, 36, 67, 37, 38, 40, 41, 42, 73, 43, 44, 75, 45, 46, 77, 47, 48, 79, 49, 50, 81, 51, 52, 83, 85, 55, 56, 87, 57, 89, 59, 60, 91, 61, 62, 93, 63, 95, 65, 96, 66, 67, 98, 68, 69, 100, 70, 71, 102, 72, 73, 75, 106, 77, 78, 79, 110, 80, 81, 112, 82, 114, 84, 85, 86, 87, 118, 88, 89, 120, 90, 91, 122, 93, 94, 95, 97, 98, 129, 99, 100, 131, 101, 102, 133, 103, 104, 135, 105, 106, 137, 107, 108, 139, 109, 110, 112, 143, 113, 114, 145, 116, 147, 118, 149, 119, 120, 151, 121, 122, 153, 123, 124, 155, 125, 126, 157, 127, 159, 129, 160, 131, 162, 132, 133, 164, 134, 135, 166, 136, 137, 138, 139, 170, 140, 141, 172, 142, 143, 145, 176, 146, 147, 148, 180, 150, 182, 152, 153, 184, 154, 155, 156, 157, 188, 159, 190, 161, 162, 193, 164, 195, 166, 197, 167, 169, 170, 171, 172, 203, 174, 205, 175, 176, 207, 177, 209, 179, 180, 181, 182, 213, 183, 184, 186, 217, 187, 188, 219, 189, 190, 221, 223, 193, 224, 194, 195, 226, 196, 197, 228, 198, 199, 230, 201, 232, 202, 203, 204, 205, 236, 206, 207, 238, 208, 209, 240, 210, 211, 242, 213, 244, 214, 215, 246, 216, 217, 248, 218, 250, 220, 221, 222, 223, 225, 226, 257, 227, 228, 259, 229, 230, 261, 231, 232, 233, 234, 265, 235, 236, 267, 238, 269, 239, 240, 271, 241, 242, 273, 243, 244, 275, 245, 246, 277, 247, 248, 279, 249, 250, 281, 252, 283, 254, 285, 255, 287, 257, 288, 258, 259, 290, 260, 261, 292, 262, 263, 264, 265, 296, 266, 298, 269, 300, 270, 271, 302, 272, 304, 274, 275, 306, 277, 308, 278, 310, 280, 281, 282, 283, 314, 284, 285, 316, 286, 287, 318, 289, 321, 291, 292, 293, 325, 295, 296, 327, 297, 298, 329, 299, 331, 301, 333, 303, 304, 335, 305, 306, 337, 307, 339, 309, 310, 341, 311, 312, 343, 313, 314, 345, 315, 316, 347, 317, 318, 349, 319, 351, 321, 352, 322, 323, 354, 324, 325, 356, 326, 327, 358, 328, 329, 360, 362, 332, 333, 364, 334, 335, 366, 336, 337, 339, 370, 340, 341, 372, 342, 343, 374, 344, 345, 376, 346, 347, 378, 348, 349, 380, 351, 382, 353, 354, 385, 387, 358, 389, 359, 360, 391, 361, 362, 393, 363, 364, 395, 365, 397, 367, 368, 399, 370, 401, 371, 372, 403, 373, 374, 375, 407, 377, 378, 411, 381, 413, 383, 415, 385, 416, 386, 387, 388, 389, 420, 391, 422, 392, 424, 395, 426, 396, 428, 398, 399, 430, 400, 401, 432, 402, 403, 434, 405, 406, 407, 438, 408, 409, 410, 411, 442, 412, 413, 444, 415, 446, 417, 418, 449, 419, 420, 451, 421, 422, 453, 424, 455, 425, 426, 457, 427, 428, 459, 429, 430, 461, 431, 432, 463, 434, 465, 467, 437, 438, 469, 439, 440, 471, 441, 442, 473, 443, 444, 475, 445, 446, 477, 447, 479, 449, 480, 450, 451, 482, 453, 484, 454, 455, 456, 488, 459, 490, 461, 462, 494, 464, 465, 466, 498, 468, 469, 500, 470, 502, 472, 473, 504, 474, 475, 506, 476, 477, 508, 478, 479, 510, 481, 482, 483, 484, 485, 486, 487, 488, 490, 492, 493, 494, 495, 496, 497, 498, 499, 500, 501, 502, 503, 504, 505, 506, 507, 508, 509, 510];
Edge_End = [2, 32, 3, 34, 5, 6, 36, 8, 38, 9, 40, 11, 12, 42, 13, 14, 44, 15, 16, 46, 17, 18, 48, 19, 20, 50, 21, 22, 52, 23, 24, 54, 25, 26, 56, 27, 28, 58, 29, 30, 60, 31, 62, 33, 34, 65, 36, 67, 37, 38, 40, 41, 42, 73, 43, 44, 75, 45, 46, 77, 47, 48, 79, 49, 50, 81, 51, 52, 83, 85, 55, 56, 87, 57, 89, 59, 60, 91, 61, 62, 93, 63, 95, 65, 96, 66, 67, 98, 68, 69, 100, 70, 71, 102, 72, 73, 75, 106, 77, 78, 79, 110, 80, 81, 112, 82, 114, 84, 85, 86, 87, 118, 88, 89, 120, 90, 91, 122, 93, 94, 95, 97, 98, 129, 99, 100, 131, 101, 102, 133, 103, 104, 135, 105, 106, 137, 107, 108, 139, 109, 110, 112, 143, 113, 114, 145, 116, 147, 118, 149, 119, 120, 151, 121, 122, 153, 123, 124, 155, 125, 126, 157, 127, 159, 129, 160, 131, 162, 132, 133, 164, 134, 135, 166, 136, 137, 138, 139, 170, 140, 141, 172, 142, 143, 145, 176, 146, 147, 148, 180, 150, 182, 152, 153, 184, 154, 155, 156, 157, 188, 159, 190, 161, 162, 193, 164, 195, 166, 197, 167, 169, 170, 171, 172, 203, 174, 205, 175, 176, 207, 177, 209, 179, 180, 181, 182, 213, 183, 184, 186, 217, 187, 188, 219, 189, 190, 221, 223, 193, 224, 194, 195, 226, 196, 197, 228, 198, 199, 230, 201, 232, 202, 203, 204, 205, 236, 206, 207, 238, 208, 209, 240, 210, 211, 242, 213, 244, 214, 215, 246, 216, 217, 248, 218, 250, 220, 221, 222, 223, 225, 226, 257, 227, 228, 259, 229, 230, 261, 231, 232, 233, 234, 265, 235, 236, 267, 238, 269, 239, 240, 271, 241, 242, 273, 243, 244, 275, 245, 246, 277, 247, 248, 279, 249, 250, 281, 252, 283, 254, 285, 255, 287, 257, 288, 258, 259, 290, 260, 261, 292, 262, 263, 264, 265, 296, 266, 298, 269, 300, 270, 271, 302, 272, 304, 274, 275, 306, 277, 308, 278, 310, 280, 281, 282, 283, 314, 284, 285, 316, 286, 287, 318, 289, 321, 291, 292, 293, 325, 295, 296, 327, 297, 298, 329, 299, 331, 301, 333, 303, 304, 335, 305, 306, 337, 307, 339, 309, 310, 341, 311, 312, 343, 313, 314, 345, 315, 316, 347, 317, 318, 349, 319, 351, 321, 352, 322, 323, 354, 324, 325, 356, 326, 327, 358, 328, 329, 360, 362, 332, 333, 364, 334, 335, 366, 336, 337, 339, 370, 340, 341, 372, 342, 343, 374, 344, 345, 376, 346, 347, 378, 348, 349, 380, 351, 382, 353, 354, 385, 387, 358, 389, 359, 360, 391, 361, 362, 393, 363, 364, 395, 365, 397, 367, 368, 399, 370, 401, 371, 372, 403, 373, 374, 375, 407, 377, 378, 411, 381, 413, 383, 415, 385, 416, 386, 387, 388, 389, 420, 391, 422, 392, 424, 395, 426, 396, 428, 398, 399, 430, 400, 401, 432, 402, 403, 434, 405, 406, 407, 438, 408, 409, 410, 411, 442, 412, 413, 444, 415, 446, 417, 418, 449, 419, 420, 451, 421, 422, 453, 424, 455, 425, 426, 457, 427, 428, 459, 429, 430, 461, 431, 432, 463, 434, 465, 467, 437, 438, 469, 439, 440, 471, 441, 442, 473, 443, 444, 475, 445, 446, 477, 447, 479, 449, 480, 450, 451, 482, 453, 484, 454, 455, 456, 488, 459, 490, 461, 462, 494, 464, 465, 466, 498, 468, 469, 500, 470, 502, 472, 473, 504, 474, 475, 506, 476, 477, 508, 478, 479, 510, 481, 482, 483, 484, 485, 486, 487, 488, 490, 492, 493, 494, 495, 496, 497, 498, 499, 500, 501, 502, 503, 504, 505, 506, 507, 508, 509, 510, 1, 1, 2, 3, 4, 5, 5, 7, 7, 8, 9, 10, 11, 11, 12, 13, 13, 14, 15, 15, 16, 17, 17, 18, 19, 19, 20, 21, 21, 22, 23, 23, 24, 25, 25, 26, 27, 27, 28, 29, 29, 30, 31, 32, 33, 33, 35, 35, 36, 37, 39, 40, 41, 41, 42, 43, 43, 44, 45, 45, 46, 47, 47, 48, 49, 49, 50, 51, 51, 53, 54, 55, 55, 56, 57, 58, 59, 59, 60, 61, 61, 62, 63, 64, 64, 65, 66, 66, 67, 68, 68, 69, 70, 70, 71, 72, 74, 74, 76, 77, 78, 78, 79, 80, 80, 81, 82, 83, 84, 85, 86, 86, 87, 88, 88, 89, 90, 90, 92, 93, 94, 96, 97, 97, 98, 99, 99, 100, 101, 101, 102, 103, 103, 104, 105, 105, 106, 107, 107, 108, 109, 111, 111, 112, 113, 113, 115, 115, 117, 117, 118, 119, 119, 120, 121, 121, 122, 123, 123, 124, 125, 125, 126, 127, 128, 128, 130, 130, 131, 132, 132, 133, 134, 134, 135, 136, 137, 138, 138, 139, 140, 140, 141, 142, 144, 144, 145, 146, 147, 148, 149, 150, 151, 152, 152, 153, 154, 155, 156, 156, 158, 158, 160, 161, 161, 163, 163, 165, 165, 166, 168, 169, 170, 171, 171, 173, 173, 174, 175, 175, 176, 177, 178, 179, 180, 181, 181, 182, 183, 185, 185, 186, 187, 187, 188, 189, 189, 191, 192, 192, 193, 194, 194, 195, 196, 196, 197, 198, 198, 200, 200, 201, 202, 203, 204, 204, 205, 206, 206, 207, 208, 208, 209, 210, 210, 212, 212, 213, 214, 214, 215, 216, 216, 217, 218, 219, 220, 221, 222, 224, 225, 225, 226, 227, 227, 228, 229, 229, 230, 231, 232, 233, 233, 234, 235, 235, 237, 237, 238, 239, 239, 240, 241, 241, 242, 243, 243, 244, 245, 245, 246, 247, 247, 248, 249, 249, 251, 251, 253, 253, 254, 255, 256, 256, 257, 258, 258, 259, 260, 260, 261, 262, 263, 264, 264, 265, 266, 268, 268, 269, 270, 270, 271, 272, 273, 274, 274, 276, 276, 277, 278, 279, 280, 281, 282, 282, 283, 284, 284, 285, 286, 286, 288, 289, 290, 291, 292, 293, 294, 295, 295, 296, 297, 297, 298, 299, 300, 301, 302, 303, 303, 304, 305, 305, 306, 307, 308, 309, 309, 310, 311, 311, 312, 313, 313, 314, 315, 315, 316, 317, 317, 318, 319, 320, 320, 321, 322, 322, 323, 324, 324, 325, 326, 326, 327, 328, 328, 330, 331, 332, 332, 333, 334, 334, 335, 336, 338, 338, 339, 340, 340, 341, 342, 342, 343, 344, 344, 345, 346, 346, 347, 348, 348, 350, 350, 352, 353, 353, 355, 357, 357, 358, 359, 359, 360, 361, 361, 362, 363, 363, 364, 365, 366, 367, 367, 369, 369, 370, 371, 371, 372, 373, 374, 375, 376, 377, 379, 380, 381, 382, 383, 384, 384, 385, 386, 387, 388, 388, 390, 390, 391, 392, 394, 394, 395, 396, 397, 398, 398, 399, 400, 400, 401, 402, 402, 404, 405, 406, 406, 407, 408, 409, 410, 410, 411, 412, 412, 414, 414, 416, 417, 417, 418, 419, 419, 420, 421, 421, 423, 423, 424, 425, 425, 426, 427, 427, 428, 429, 429, 430, 431, 431, 433, 433, 435, 436, 437, 437, 438, 439, 439, 440, 441, 441, 442, 443, 443, 444, 445, 445, 446, 447, 448, 448, 449, 450, 450, 452, 452, 453, 454, 455, 456, 458, 458, 460, 461, 462, 463, 464, 465, 466, 467, 468, 468, 469, 470, 471, 472, 472, 473, 474, 474, 475, 476, 476, 477, 478, 478, 480, 481, 482, 483, 484, 485, 486, 487, 489, 491, 492, 493, 494, 495, 496, 497, 498, 499, 500, 501, 502, 503, 504, 505, 506, 507, 508, 509];
L = [1, 1, 1, 1, 1, 1, 1, 1, 1, 1, 1, 1, 1, 1, 1, 1, 1, 1, 1, 1, 1, 1, 1, 1, 1, 1, 1, 1, 1, 1, 1, 1, 1, 1, 1, 1, 1, 1, 1, 1, 1, 1, 1, 1, 1, 1, 1, 1, 1, 1, 1, 1, 1, 1, 1, 1, 1, 1, 1, 1, 1, 1, 1, 1, 1, 1, 1, 1, 1, 1, 1, 1, 1, 1, 1, 1, 1, 1, 1, 1, 1, 1, 1, 1, 1, 1, 1, 1, 1, 1, 1, 1, 1, 1, 1, 1, 1, 1, 1, 1, 1, 1, 1, 1, 1, 1, 1, 1, 1, 1, 1, 1, 1, 1, 1, 1, 1, 1, 1, 1, 1, 1, 1, 1, 1, 1, 1, 1, 1, 1, 1, 1, 1, 1, 1, 1, 1, 1, 1, 1, 1, 1, 1, 1, 1, 1, 1, 1, 1, 1, 1, 1, 1, 1, 1, 1, 1, 1, 1, 1, 1, 1, 1, 1, 1, 1, 1, 1, 1, 1, 1, 1, 1, 1, 1, 1, 1, 1, 1, 1, 1, 1, 1, 1, 1, 1, 1, 1, 1, 1, 1, 1, 1, 1, 1, 1, 1, 1, 1, 1, 1, 1, 1, 1, 1, 1, 1, 1, 1, 1, 1, 1, 1, 1, 1, 1, 1, 1, 1, 1, 1, 1, 1, 1, 1, 1, 1, 1, 1, 1, 1, 1, 1, 1, 1, 1, 1, 1, 1, 1, 1, 1, 1, 1, 1, 1, 1, 1, 1, 1, 1, 1, 1, 1, 1, 1, 1, 1, 1, 1, 1, 1, 1, 1, 1, 1, 1, 1, 1, 1, 1, 1, 1, 1, 1, 1, 1, 1, 1, 1, 1, 1, 1, 1, 1, 1, 1, 1, 1, 1, 1, 1, 1, 1, 1, 1, 1, 1, 1, 1, 1, 1, 1, 1, 1, 1, 1, 1, 1, 1, 1, 1, 1, 1, 1, 1, 1, 1, 1, 1, 1, 1, 1, 1, 1, 1, 1, 1, 1, 1, 1, 1, 1, 1, 1, 1, 1, 1, 1, 1, 1, 1, 1, 1, 1, 1, 1, 1, 1, 1, 1, 1, 1, 1, 1, 1, 1, 1, 1, 1, 1, 1, 1, 1, 1, 1, 1, 1, 1, 1, 1, 1, 1, 1, 1, 1, 1, 1, 1, 1, 1, 1, 1, 1, 1, 1, 1, 1, 1, 1, 1, 1, 1, 1, 1, 1, 1, 1, 1, 1, 1, 1, 1, 1, 1, 1, 1, 1, 1, 1, 1, 1, 1, 1, 1, 1, 1, 1, 1, 1, 1, 1, 1, 1, 1, 1, 1, 1, 1, 1, 1, 1, 1, 1, 1, 1, 1, 1, 1, 1, 1, 1, 1, 1, 1, 1, 1, 1, 1, 1, 1, 1, 1, 1, 1, 1, 1, 1, 1, 1, 1, 1, 1, 1, 1, 1, 1, 1, 1, 1, 1, 1, 1, 1, 1, 1, 1, 1, 1, 1, 1, 1, 1, 1, 1, 1, 1, 1, 1, 1, 1, 1, 1, 1, 1, 1, 1, 1, 1, 1, 1, 1, 1, 1, 1, 1, 1, 1, 1, 1, 1, 1, 1, 1, 1, 1, 1, 1, 1, 1, 1, 1, 1, 1, 1, 1, 1, 1, 1, 1, 1, 1, 1, 1, 1, 1, 1, 1, 1, 1, 1, 1, 1, 1, 1, 1, 1, 1, 1, 1, 1, 1, 1, 1, 1, 1, 1, 1, 1, 1, 1, 1, 1, 1, 1, 1, 1, 1, 1, 1, 1, 1, 1, 1, 1, 1, 1, 1, 1, 1, 1, 1, 1, 1, 1, 1, 1, 1, 1, 1, 1, 1, 1, 1, 1, 1, 1, 1, 1, 1, 1, 1, 1, 1, 1, 1, 1, 1, 1, 1, 1, 1, 1, 1, 1, 1, 1, 1, 1, 1, 1, 1, 1, 1, 1, 1, 1, 1, 1, 1, 1, 1, 1, 1, 1, 1, 1, 1, 1, 1, 1, 1, 1, 1, 1, 1, 1, 1, 1, 1, 1, 1, 1, 1, 1, 1, 1, 1, 1, 1, 1, 1, 1, 1, 1, 1, 1, 1, 1, 1, 1, 1, 1, 1, 1, 1, 1, 1, 1, 1, 1, 1, 1, 1, 1, 1, 1, 1, 1, 1, 1, 1, 1, 1, 1, 1, 1, 1, 1, 1, 1, 1, 1, 1, 1, 1, 1, 1, 1, 1, 1, 1, 1, 1, 1, 1, 1, 1, 1, 1, 1, 1, 1, 1, 1, 1, 1, 1, 1, 1, 1, 1, 1, 1, 1, 1, 1, 1, 1, 1, 1, 1, 1, 1, 1, 1, 1, 1, 1, 1, 1, 1, 1, 1, 1, 1, 1, 1, 1, 1, 1, 1, 1, 1, 1, 1, 1, 1, 1, 1, 1, 1, 1, 1, 1, 1, 1, 1, 1, 1, 1, 1, 1, 1, 1, 1, 1, 1, 1, 1, 1, 1, 1, 1, 1, 1, 1, 1, 1, 1, 1, 1, 1, 1, 1, 1, 1, 1, 1, 1, 1, 1, 1, 1, 1, 1, 1, 1, 1, 1, 1, 1, 1, 1, 1, 1, 1, 1, 1, 1, 1, 1, 1, 1, 1, 1, 1, 1, 1, 1, 1, 1, 1, 1, 1, 1, 1, 1, 1, 1, 1, 1, 1, 1, 1, 1, 1, 1, 1, 1, 1, 1, 1, 1, 1, 1, 1, 1, 1, 1, 1, 1, 1, 1, 1, 1, 1, 1, 1, 1, 1, 1, 1, 1, 1, 1, 1, 1, 1, 1, 1, 1, 1, 1, 1, 1, 1, 1, 1, 1, 1, 1, 1, 1, 1, 1, 1, 1, 1, 1, 1, 1, 1, 1, 1, 1, 1, 1, 1, 1, 1, 1, 1, 1, 1, 1, 1, 1, 1, 1, 1, 1, 1, 1, 1, 1, 1, 1, 1, 1, 1, 1, 1, 1, 1, 1, 1, 1, 1, 1, 1, 1, 1, 1, 1, 1, 1, 1, 1, 1, 1, 1, 1, 1, 1, 1, 1, 1, 1, 1, 1, 1, 1, 1, 1, 1, 1, 1, 1, 1, 1, 1, 1, 1, 1, 1, 1, 1, 1, 1, 1, 1, 1, 1, 1, 1, 1, 1, 1, 1, 1, 1, 1, 1, 1, 1, 1, 1, 1, 1, 1, 1, 1, 1, 1, 1, 1, 1, 1, 1, 1, 1, 1, 1, 1, 1, 1, 1, 1, 1, 1, 1, 1, 1, 1, 1, 1, 1, 1, 1, 1, 1, 1, 1, 1, 1, 1, 1, 1, 1, 1, 1, 1, 1, 1, 1, 1, 1, 1, 1, 1, 1, 1, 1, 1, 1, 1, 1, 1, 1, 1, 1, 1, 1, 1, 1, 1, 1, 1, 1, 1, 1, 1, 1, 1, 1, 1, 1, 1, 1, 1, 1, 1, 1, 1, 1, 1, 1, 1, 1, 1, 1, 1, 1, 1, 1, 1, 1, 1, 1, 1, 1, 1, 1, 1, 1, 1, 1, 1, 1, 1, 1, 1, 1, 1, 1, 1, 1, 1, 1, 1, 1, 1, 1, 1, 1, 1, 1, 1, 1, 1, 1, 1, 1, 1, 1, 1, 1, 1, 1, 1, 1, 1, 1, 1, 1, 1, 1, 1, 1, 1, 1, 1, 1, 1, 1, 1, 1, 1, 1, 1, 1, 1, 1, 1, 1, 1, 1, 1, 1, 1, 1, 1, 1, 1, 1, 1, 1, 1, 1, 1, 1, 1, 1, 1, 1, 1, 1, 1, 1, 1, 1, 1, 1, 1, 1, 1, 1, 1, 1, 1, 1, 1, 1, 1, 1, 1, 1, 1, 1, 1, 1, 1, 1, 1, 1, 1, 1, 1, 1, 1, 1, 1, 1, 1, 1, 1, 1, 1, 1, 1, 1, 1, 1, 1, 1, 1, 1, 1, 1, 1, 1, 1, 1];
T = [1, 1, 1, 1, 1, 1, 1, 1, 1, 1, 1, 1, 1, 1, 1, 1, 1, 1, 1, 1, 1, 1, 1, 1, 1, 1, 1, 1, 1, 1, 1, 1, 1, 1, 1, 1, 1, 1, 1, 1, 1, 1, 1, 1, 1, 1, 1, 1, 1, 1, 1, 1, 1, 1, 1, 1, 1, 1, 1, 1, 1, 1, 1, 1, 1, 1, 1, 1, 1, 1, 1, 1, 1, 1, 1, 1, 1, 1, 1, 1, 1, 1, 1, 1, 1, 1, 1, 1, 1, 1, 1, 1, 1, 1, 1, 1, 1, 1, 1, 1, 1, 1, 1, 1, 1, 1, 1, 1, 1, 1, 1, 1, 1, 1, 1, 1, 1, 1, 1, 1, 1, 1, 1, 1, 1, 1, 1, 1, 1, 1, 1, 1, 1, 1, 1, 1, 1, 1, 1, 1, 1, 1, 1, 1, 1, 1, 1, 1, 1, 1, 1, 1, 1, 1, 1, 1, 1, 1, 1, 1, 1, 1, 1, 1, 1, 1, 1, 1, 1, 1, 1, 1, 1, 1, 1, 1, 1, 1, 1, 1, 1, 1, 1, 1, 1, 1, 1, 1, 1, 1, 1, 1, 1, 1, 1, 1, 1, 1, 1, 1, 1, 1, 1, 1, 1, 1, 1, 1, 1, 1, 1, 1, 1, 1, 1, 1, 1, 1, 1, 1, 1, 1, 1, 1, 1, 1, 1, 1, 1, 1, 1, 1, 1, 1, 1, 1, 1, 1, 1, 1, 1, 1, 1, 1, 1, 1, 1, 1, 1, 1, 1, 1, 1, 1, 1, 1, 1, 1, 1, 1, 1, 1, 1, 1, 1, 1, 1, 1, 1, 1, 1, 1, 1, 1, 1, 1, 1, 1, 1, 1, 1, 1, 1, 1, 1, 1, 1, 1, 1, 1, 1, 1, 1, 1, 1, 1, 1, 1, 1, 1, 1, 1, 1, 1, 1, 1, 1, 1, 1, 1, 1, 1, 1, 1, 1, 1, 1, 1, 1, 1, 1, 1, 1, 1, 1, 1, 1, 1, 1, 1, 1, 1, 1, 1, 1, 1, 1, 1, 1, 1, 1, 1, 1, 1, 1, 1, 1, 1, 1, 1, 1, 1, 1, 1, 1, 1, 1, 1, 1, 1, 1, 1, 1, 1, 1, 1, 1, 1, 1, 1, 1, 1, 1, 1, 1, 1, 1, 1, 1, 1, 1, 1, 1, 1, 1, 1, 1, 1, 1, 1, 1, 1, 1, 1, 1, 1, 1, 1, 1, 1, 1, 1, 1, 1, 1, 1, 1, 1, 1, 1, 1, 1, 1, 1, 1, 1, 1, 1, 1, 1, 1, 1, 1, 1, 1, 1, 1, 1, 1, 1, 1, 1, 1, 1, 1, 1, 1, 1, 1, 1, 1, 1, 1, 1, 1, 1, 1, 1, 1, 1, 1, 1, 1, 1, 1, 1, 1, 1, 1, 1, 1, 1, 1, 1, 1, 1, 1, 1, 1, 1, 1, 1, 1, 1, 1, 1, 1, 1, 1, 1, 1, 1, 1, 1, 1, 1, 1, 1, 1, 1, 1, 1, 1, 1, 1, 1, 1, 1, 1, 1, 1, 1, 1, 1, 1, 1, 1, 1, 1, 1, 1, 1, 1, 1, 1, 1, 1, 1, 1, 1, 1, 1, 1, 1, 1, 1, 1, 1, 1, 1, 1, 1, 1, 1, 1, 1, 1, 1, 1, 1, 1, 1, 1, 1, 1, 1, 1, 1, 1, 1, 1, 1, 1, 1, 1, 1, 1, 1, 1, 1, 1, 1, 1, 1, 1, 1, 1, 1, 1, 1, 1, 1, 1, 1, 1, 1, 1, 1, 1, 1, 1, 1, 1, 1, 1, 1, 1, 1, 1, 1, 1, 1, 1, 1, 1, 1, 1, 1, 1, 1, 1, 1, 1, 1, 1, 1, 1, 1, 1, 1, 1, 1, 1, 1, 1, 1, 1, 1, 1, 1, 1, 1, 1, 1, 1, 1, 1, 1, 1, 1, 1, 1, 1, 1, 1, 1, 1, 1, 1, 1, 1, 1, 1, 1, 1, 1, 1, 1, 1, 1, 1, 1, 1, 1, 1, 1, 1, 1, 1, 1, 1, 1, 1, 1, 1, 1, 1, 1, 1, 1, 1, 1, 1, 1, 1, 1, 1, 1, 1, 1, 1, 1, 1, 1, 1, 1, 1, 1, 1, 1, 1, 1, 1, 1, 1, 1, 1, 1, 1, 1, 1, 1, 1, 1, 1, 1, 1, 1, 1, 1, 1, 1, 1, 1, 1, 1, 1, 1, 1, 1, 1, 1, 1, 1, 1, 1, 1, 1, 1, 1, 1, 1, 1, 1, 1, 1, 1, 1, 1, 1, 1, 1, 1, 1, 1, 1, 1, 1, 1, 1, 1, 1, 1, 1, 1, 1, 1, 1, 1, 1, 1, 1, 1, 1, 1, 1, 1, 1, 1, 1, 1, 1, 1, 1, 1, 1, 1, 1, 1, 1, 1, 1, 1, 1, 1, 1, 1, 1, 1, 1, 1, 1, 1, 1, 1, 1, 1, 1, 1, 1, 1, 1, 1, 1, 1, 1, 1, 1, 1, 1, 1, 1, 1, 1, 1, 1, 1, 1, 1, 1, 1, 1, 1, 1, 1, 1, 1, 1, 1, 1, 1, 1, 1, 1, 1, 1, 1, 1, 1, 1, 1, 1, 1, 1, 1, 1, 1, 1, 1, 1, 1, 1, 1, 1, 1, 1, 1, 1, 1, 1, 1, 1, 1, 1, 1, 1, 1, 1, 1, 1, 1, 1, 1, 1, 1, 1, 1, 1, 1, 1, 1, 1, 1, 1, 1, 1, 1, 1, 1, 1, 1, 1, 1, 1, 1, 1, 1, 1, 1, 1, 1, 1, 1, 1, 1, 1, 1, 1, 1, 1, 1, 1, 1, 1, 1, 1, 1, 1, 1, 1, 1, 1, 1, 1, 1, 1, 1, 1, 1, 1, 1, 1, 1, 1, 1, 1, 1, 1, 1, 1, 1, 1, 1, 1, 1, 1, 1, 1, 1, 1, 1, 1, 1, 1, 1, 1, 1, 1, 1, 1, 1, 1, 1, 1, 1, 1, 1, 1, 1, 1, 1, 1, 1, 1, 1, 1, 1, 1, 1, 1, 1, 1, 1, 1, 1, 1, 1, 1, 1, 1, 1, 1, 1, 1, 1, 1, 1, 1, 1, 1, 1, 1, 1, 1, 1, 1, 1, 1, 1, 1, 1, 1, 1, 1, 1, 1, 1, 1, 1, 1, 1, 1, 1, 1, 1, 1, 1, 1, 1, 1, 1, 1, 1, 1, 1, 1, 1, 1, 1, 1, 1, 1, 1, 1, 1, 1, 1, 1, 1, 1, 1, 1, 1, 1, 1, 1, 1, 1, 1, 1, 1, 1, 1, 1, 1, 1, 1, 1, 1, 1, 1, 1, 1, 1, 1, 1, 1, 1, 1, 1, 1, 1, 1, 1, 1, 1, 1, 1, 1, 1, 1, 1, 1, 1, 1, 1, 1, 1, 1, 1, 1, 1, 1, 1, 1, 1, 1, 1, 1, 1, 1, 1, 1, 1, 1, 1, 1, 1, 1, 1, 1, 1, 1, 1, 1, 1, 1, 1, 1, 1, 1, 1, 1, 1, 1, 1, 1, 1, 1, 1, 1, 1, 1, 1, 1, 1, 1, 1, 1, 1, 1, 1, 1, 1, 1, 1, 1, 1, 1, 1, 1, 1, 1, 1, 1, 1, 1, 1, 1, 1, 1, 1, 1, 1, 1, 1, 1, 1, 1, 1, 1, 1, 1, 1, 1, 1, 1, 1, 1, 1, 1, 1, 1, 1, 1, 1, 1, 1, 1, 1, 1, 1, 1, 1, 1, 1, 1, 1, 1, 1, 1, 1, 1, 1, 1, 1, 1, 1, 1, 1, 1, 1, 1, 1, 1, 1, 1, 1, 1, 1, 1, 1, 1, 1, 1, 1, 1, 1, 1, 1, 1, 1, 1, 1, 1, 1, 1, 1, 1, 1, 1, 1, 1, 1];
Lower_Bound = [0, 2, 3, 9, 8, 9, 10, 11, 13, 15, 16, 18, 18, 17, 18, 21, 20, 21, 22, 23, 25, 25, 26, 27, 28, 29, 30, 31, 33, 34, 34, 1, 2, 3, 6, 8, 8, 9, 14, 14, 12, 13, 14, 16, 16, 17, 18, 19, 20, 21, 22, 23, 26, 27, 29, 30, 31, 31, 32, 35, 34, 35, 36, 4, 3, 4, 5, 6, 7, 8, 9, 10, 11, 15, 16, 18, 17, 18, 19, 20, 21, 22, 23, 25, 25, 26, 27, 29, 29, 30, 31, 36, 35, 36, 38, 6, 6, 7, 7, 7, 8, 9, 10, 11, 13, 13, 14, 15, 16, 18, 22, 21, 22, 23, 26, 27, 28, 27, 28, 29, 30, 31, 33, 33, 34, 36, 36, 8, 7, 8, 8, 9, 9, 11, 11, 12, 13, 16, 15, 17, 17, 19, 19, 25, 24, 24, 26, 28, 29, 34, 30, 30, 31, 32, 33, 34, 36, 38, 38, 9, 10, 9, 10, 9, 12, 12, 12, 18, 18, 17, 16, 18, 23, 21, 22, 23, 24, 30, 28, 27, 28, 29, 30, 32, 34, 35, 36, 37, 37, 37, 40, 12, 12, 14, 11, 13, 13, 15, 15, 19, 19, 18, 18, 18, 19, 20, 21, 22, 24, 24, 26, 28, 29, 30, 31, 32, 33, 34, 37, 39, 37, 38, 39, 13, 14, 13, 14, 13, 19, 15, 16, 17, 18, 22, 20, 19, 22, 21, 24, 25, 25, 26, 26, 28, 28, 29, 30, 32, 32, 34, 36, 37, 38, 39, 40, 16, 16, 16, 15, 16, 15, 18, 17, 19, 19, 20, 21, 25, 23, 24, 23, 25, 27, 26, 27, 30, 29, 30, 32, 33, 34, 35, 35, 36, 38, 38, 43, 17, 18, 18, 19, 17, 19, 22, 20, 19, 20, 22, 22, 25, 27, 25, 26, 26, 26, 29, 28, 31, 33, 31, 34, 33, 35, 35, 37, 38, 38, 40, 40, 20, 21, 20, 21, 20, 19, 20, 21, 22, 21, 26, 23, 24, 25, 26, 27, 28, 27, 30, 29, 30, 31, 32, 34, 34, 35, 36, 37, 38, 40, 42, 41, 22, 22, 21, 26, 21, 22, 22, 23, 24, 24, 25, 26, 27, 30, 27, 28, 29, 32, 32, 32, 31, 32, 37, 34, 35, 36, 38, 40, 39, 40, 43, 45, 24, 23, 24, 25, 26, 23, 24, 25, 25, 25, 29, 27, 28, 27, 28, 30, 30, 31, 35, 33, 38, 38, 36, 35, 37, 39, 39, 39, 40, 41, 44, 45, 25, 26, 27, 26, 25, 27, 25, 26, 25, 26, 29, 28, 29, 30, 29, 30, 33, 34, 33, 40, 39, 38, 39, 38, 40, 40, 41, 40, 41, 42, 43, 46, 30, 27, 28, 28, 28, 27, 28, 27, 28, 27, 30, 29, 32, 32, 32, 32, 32, 33, 35, 39, 39, 40, 40, 39, 40, 42, 42, 41, 44, 43, 44, 45, 29, 31, 29, 32, 29, 31, 32, 30, 29, 32, 31, 36, 36, 34, 33, 37, 37, 36, 35, 36, 37, 39, 39, 40, 41, 43, 43, 45, 43, 44, 45];
Upper_Bound = [2, 16, 10, 10, 11, 17, 13, 15, 20, 26, 20, 22, 19, 18, 20, 27, 21, 22, 33, 24, 34, 26, 28, 34, 37, 36, 33, 40, 38, 37, 37, 4, 14, 6, 9, 13, 12, 11, 19, 25, 15, 16, 16, 19, 20, 26, 21, 24, 33, 22, 28, 25, 36, 29, 37, 32, 39, 32, 39, 43, 35, 44, 42, 26, 4, 5, 12, 15, 17, 12, 14, 14, 17, 16, 21, 31, 21, 25, 22, 21, 22, 26, 24, 28, 28, 42, 32, 31, 33, 34, 56, 39, 37, 37, 42, 12, 21, 13, 8, 10, 13, 13, 14, 16, 19, 16, 40, 18, 26, 19, 24, 23, 32, 25, 33, 29, 31, 29, 30, 36, 36, 33, 42, 36, 43, 40, 50, 10, 12, 10, 18, 12, 16, 13, 12, 24, 18, 20, 16, 18, 23, 20, 22, 32, 32, 26, 32, 37, 30, 35, 32, 35, 32, 34, 34, 38, 42, 41, 39, 18, 17, 16, 14, 13, 23, 37, 28, 23, 19, 20, 19, 21, 24, 27, 23, 24, 26, 34, 29, 28, 33, 44, 39, 36, 38, 36, 38, 39, 42, 40, 44, 23, 15, 15, 18, 14, 16, 21, 19, 22, 23, 24, 22, 22, 26, 22, 22, 23, 25, 25, 39, 31, 30, 33, 35, 34, 35, 35, 45, 46, 40, 43, 40, 14, 15, 16, 19, 17, 22, 21, 19, 18, 22, 28, 23, 27, 28, 22, 26, 27, 27, 33, 35, 33, 30, 31, 33, 39, 38, 46, 39, 40, 40, 46, 41, 18, 18, 22, 19, 18, 19, 25, 20, 20, 20, 26, 24, 26, 24, 28, 27, 26, 28, 31, 30, 31, 42, 32, 39, 36, 43, 40, 36, 43, 43, 48, 55, 25, 19, 33, 21, 19, 25, 27, 25, 28, 23, 24, 28, 32, 28, 27, 27, 31, 28, 52, 31, 37, 35, 37, 42, 39, 36, 45, 41, 41, 41, 46, 53, 23, 22, 22, 29, 23, 20, 27, 22, 25, 27, 32, 32, 27, 32, 37, 37, 30, 33, 39, 39, 36, 35, 33, 36, 36, 38, 41, 39, 40, 41, 43, 51, 23, 29, 23, 43, 24, 24, 26, 70, 25, 28, 27, 27, 29, 33, 32, 39, 48, 45, 38, 33, 34, 35, 42, 35, 39, 41, 43, 41, 41, 80, 55, 52, 28, 28, 28, 26, 27, 26, 25, 35, 26, 42, 36, 32, 42, 30, 34, 32, 35, 33, 49, 37, 51, 40, 39, 38, 50, 43, 46, 40, 41, 58, 45, 49, 33, 28, 28, 27, 28, 28, 26, 41, 34, 29, 35, 29, 35, 35, 32, 31, 45, 40, 35, 41, 46, 41, 42, 40, 43, 46, 43, 41, 58, 47, 46, 61, 33, 28, 30, 29, 34, 29, 30, 28, 29, 29, 31, 33, 35, 35, 41, 46, 38, 37, 41, 49, 46, 43, 41, 41, 49, 43, 45, 42, 45, 44, 59, 50, 32, 33, 35, 37, 34, 34, 35, 32, 34, 37, 36, 43, 38, 38, 35, 48, 41, 40, 39, 42, 52, 42, 59, 49, 47, 45, 44, 52, 49, 51, 53];
Start = 1;
End = 510;
Time = 53;
